param set_len = 44;
param target_sum = 10507037386;
param values := [1] 25374307 [2] 446364868 [3] 392417566 [4] 790595796 [5] 416931848 [6] 123779024 [7] 645585094 [8] 907390861 [9] 519140222 [10] 2674953 [11] 321491809 [12] 250994958 [13] 133179123 [14] 233703870 [15] 890381010 [16] 452708821 [17] 38410646 [18] 223006750 [19] 791250732 [20] 684162157 [21] 961424703 [22] 477979416 [23] 703326462 [24] 849247721 [25] 372153271 [26] 189603599 [27] 78104897 [28] 582684798 [29] 557169651 [30] 408036888 [31] 305130300 [32] 58634591 [33] 39413871 [34] 350044207 [35] 351261897 [36] 534398402 [37] 437194344 [38] 83478841 [39] 32975514 [40] 529603656 [41] 903892757 [42] 948140572 [43] 427808564 [44] 272521642 ;
